c SAT Generator for power-law distributed variable frequencies
c -g u -v 20 -c 91 -k 3 -p 2.750000 -b 3.200000 -f /home/schmidt/Devel/ni-kop-sat/data/ensemble/ruf20-91/ruf20-91-261 -u 1 -U 1 -s 145988284
p cnf 20 91
-5 11 -14 0
-3 16 -18 0
-13 14 15 0
3 -5 -16 0
-4 15 20 0
-3 -10 14 0
1 8 9 0
-7 -13 -17 0
-6 -13 14 0
-1 -9 16 0
6 -10 18 0
-4 9 15 0
3 -5 15 0
5 -8 -15 0
-2 -6 -20 0
4 -9 -12 0
2 -5 20 0
-3 -4 20 0
-4 -8 11 0
4 6 14 0
-4 9 -11 0
8 -14 -18 0
5 -9 -18 0
14 19 20 0
1 3 -6 0
3 7 14 0
2 11 19 0
3 5 8 0
-1 -6 -20 0
-1 -4 19 0
-7 -14 15 0
-9 -10 19 0
8 14 -19 0
-3 -13 -20 0
-3 18 -20 0
2 -17 20 0
5 6 18 0
-3 15 19 0
1 -7 -18 0
-8 -11 14 0
-9 13 16 0
6 8 18 0
-3 -4 19 0
11 -12 -17 0
1 -10 -15 0
4 12 -20 0
1 6 -16 0
-10 11 14 0
9 -18 -20 0
-5 7 13 0
-3 5 15 0
-5 -11 16 0
4 19 -20 0
-14 -15 -18 0
-9 11 -18 0
-6 7 -18 0
-9 -15 17 0
-8 13 -17 0
-5 6 -13 0
-6 9 15 0
-10 17 20 0
-6 -7 19 0
14 -15 -17 0
10 14 15 0
-4 -16 -17 0
-3 -16 -20 0
12 -15 -20 0
1 2 4 0
3 14 -18 0
6 7 12 0
3 -12 -16 0
-3 11 14 0
9 16 -20 0
-6 18 -20 0
-8 -15 19 0
-4 -5 -6 0
1 7 14 0
6 -11 14 0
5 -10 19 0
8 10 11 0
3 7 -10 0
5 8 17 0
-13 -16 19 0
16 17 18 0
-2 3 17 0
-8 11 -19 0
3 -5 13 0
1 8 13 0
-6 15 -16 0
-4 -5 -11 0
6 -8 -9 0
